%%% static parameters %%%
timespan = 1;
Fact = [2];
Distr1 = [5];
Distr2 = [10];
Clients_N = [60];
Demand_W = [15];
Lt0 = [4];
Lt1 = [4];
SS_ = [0.85];
DS_D = [8];
K = [200];
MA = [500];
%%% dynamic parameters %%%
lost_ratio_sales_ret_th = 0.15671726810574882;
lost_ratio_sales_ret_w = 55;
lost_ratio_sales_dis_th = 0.8461983486378553;
lost_ratio_sales_dis_w = 8;
lost_ratio_sales_fac_th = 0.749068467344558;
lost_ratio_sales_fac_w = 48;
stock_customer_MA_mean_relative_th = 0.9978393384340666;
stock_customer_MA_mean_relative_w = 14;
stock_distributor_MA_mean_relative_th = 0.6338771921518839;
stock_distributor_MA_mean_relative_w = 98;
stock_retailer_MA_mean_relative_th = 0.8357926886525741;
stock_retailer_MA_mean_relative_w = 43;
stock_factory_MA_mean_relative_th = 0.02749059386380126;
stock_factory_MA_mean_relative_w = 58;
